************************************************************************
file with basedata            : me5_.bas
initial value random generator: 1107181723
************************************************************************
projects                      :  1
jobs (incl. supersource/sink ):  7
horizon                       :  85
RESOURCES
  - renewable                 :  2   R
  - nonrenewable              :  0   N
  - doubly constrained        :  0   D
************************************************************************
PROJECT INFORMATION:
pronr.  #jobs rel.date duedate tardcost  MPM-Time
    1     5      0       18        5       18
************************************************************************
PRECEDENCE RELATIONS:
jobnr.    #modes  #successors   successors
   1        1          2           2   3
   2        3          1           5   
   3        3          1           4
   4        3          2           5   6
   5        3          1           7   
   6        3          1           7
   7        3          0           
************************************************************************
REQUESTS/DURATIONS:
jobnr. mode duration  R 1  R 2
------------------------------------------------------------------------
  1      1     0       0    0
  2      1     1       7    11
         2     2       5    4
  3      1     5       8    2
         2     10      5    4
  4      1     4       9    4
         2     8       8    3
  5      1     3       5    6
         2     5       4    5
  6      1     4       9    3
         2     6       7    2
  7      1     0       0    0
************************************************************************
RESOURCEAVAILABILITIES:
  R 1  R 2
   12   10
************************************************************************
